ActiveSbox/r5.AS.lp.sol
# Objective value = 4
A0_0_0 0
A0_0_1 1
A0_1_0 0
A0_1_1 0
A0_2_0 0
A0_2_1 0
A0_3_0 0
A0_3_1 0
A1_0_0 0
A1_0_1 0
A1_1_0 0
A1_1_1 0
A1_2_0 0
A1_2_1 0
A1_3_0 0
A1_3_1 1
A2_0_0 0
A2_0_1 0
A2_1_0 0
A2_1_1 0
A2_2_0 0
A2_2_1 0
A2_3_0 0
A2_3_1 0
A3_0_0 0
A3_0_1 0
A3_1_0 0
A3_1_1 0
A3_2_0 0
A3_2_1 0
A3_3_0 0
A3_3_1 1
A4_0_0 0
A4_0_1 0
A4_1_0 0
A4_1_1 0
A4_2_0 0
A4_2_1 0
A4_3_0 0
A4_3_1 1
x0_0 0
x0_1 0
x0_2 0
x0_3 0
x0_4 0
x0_5 1
x0_6 0
x0_7 1
x0_8 1
x0_9 0
x0_10 0
x0_11 0
x0_12 0
x0_13 0
x0_14 0
x0_15 0
x0_16 0
x0_17 0
x0_18 0
x0_19 0
x0_20 0
x0_21 0
x0_22 0
x0_23 0
x0_24 0
x0_25 0
x0_26 0
x0_27 0
x0_28 0
x0_29 0
x0_30 0
x0_31 0
x0_32 0
x0_33 0
x0_34 0
x0_35 0
x0_36 0
x0_37 0
x0_38 0
x0_39 0
x0_40 0
x0_41 0
x0_42 0
x0_43 0
x0_44 0
x0_45 0
x0_46 0
x0_47 1
x0_48 0
x0_49 0
x0_50 0
x0_51 0
x0_52 0
x0_53 0
x0_54 0
x0_55 0
x0_56 0
x0_57 0
x0_58 0
x0_59 0
x0_60 0
x0_61 0
x0_62 0
x0_63 0
y0_0 0
y0_1 0
y0_2 0
y0_3 0
y0_4 0
y0_5 0
y0_6 0
y0_7 1
x0_67 0
d0_0_1 0
x0_66 0
d0_0_2 0
x0_65 0
d0_0_3 0
x0_64 0
d0_0_4 1
x0_71 0
d0_0_5 0
x0_70 0
d0_0_6 0
x0_69 0
d0_0_7 0
x0_68 0
d0_0_8 0
y0_16 0
y0_17 0
y0_18 0
y0_19 0
y0_20 0
y0_21 0
y0_22 0
y0_23 0
x0_75 0
d0_1_1 0
x0_74 0
d0_1_2 0
x0_73 0
d0_1_3 0
x0_72 0
d0_1_4 0
x0_79 0
d0_1_5 0
x0_78 0
d0_1_6 0
x0_77 0
d0_1_7 0
x0_76 0
d0_1_8 0
y0_32 0
y0_33 0
y0_34 0
y0_35 0
y0_36 0
y0_37 0
y0_38 0
y0_39 0
x0_83 0
d0_2_1 0
x0_82 0
d0_2_2 0
x0_81 0
d0_2_3 0
x0_80 0
d0_2_4 0
x0_87 1
d0_2_5 1
x0_86 0
d0_2_6 0
x0_85 0
d0_2_7 0
x0_84 0
d0_2_8 0
y0_48 0
y0_49 0
y0_50 0
y0_51 0
y0_52 0
y0_53 0
y0_54 0
y0_55 0
x0_91 0
d0_3_1 0
x0_90 0
d0_3_2 0
x0_89 0
d0_3_3 0
x0_88 0
d0_3_4 0
x0_95 0
d0_3_5 0
x0_94 0
d0_3_6 0
x0_93 0
d0_3_7 0
x0_92 0
d0_3_8 0
x1_0 0
x1_1 0
x1_2 0
x1_3 0
x1_4 0
x1_5 0
x1_6 0
x1_7 0
x1_8 0
x1_9 0
x1_10 0
x1_11 0
x1_12 0
x1_13 0
x1_14 0
x1_15 0
x1_16 0
x1_17 0
x1_18 0
x1_19 0
x1_20 0
x1_21 0
x1_22 0
x1_23 0
x1_24 0
x1_25 0
x1_26 0
x1_27 0
x1_28 0
x1_29 0
x1_30 0
x1_31 0
x1_32 0
x1_33 0
x1_34 0
x1_35 0
x1_36 0
x1_37 0
x1_38 0
x1_39 0
x1_40 0
x1_41 0
x1_42 0
x1_43 0
x1_44 0
x1_45 0
x1_46 0
x1_47 0
x1_48 0
x1_49 0
x1_50 0
x1_51 0
x1_52 0
x1_53 0
x1_54 0
x1_55 1
x1_56 0
x1_57 0
x1_58 0
x1_59 0
x1_60 0
x1_61 1
x1_62 0
x1_63 1
y1_0 0
y1_1 0
y1_2 0
y1_3 0
y1_4 0
y1_5 0
y1_6 0
y1_7 0
x1_67 0
d1_0_1 0
x1_66 0
d1_0_2 0
x1_65 0
d1_0_3 0
x1_64 0
d1_0_4 0
x1_71 0
d1_0_5 0
x1_70 0
d1_0_6 0
x1_69 0
d1_0_7 0
x1_68 0
d1_0_8 0
y1_16 0
y1_17 0
y1_18 0
y1_19 0
y1_20 0
y1_21 0
y1_22 0
y1_23 0
x1_75 0
d1_1_1 0
x1_74 0
d1_1_2 0
x1_73 0
d1_1_3 0
x1_72 0
d1_1_4 0
x1_79 0
d1_1_5 0
x1_78 0
d1_1_6 0
x1_77 0
d1_1_7 0
x1_76 0
d1_1_8 0
y1_32 0
y1_33 0
y1_34 0
y1_35 0
y1_36 0
y1_37 0
y1_38 0
y1_39 0
x1_83 0
d1_2_1 0
x1_82 0
d1_2_2 0
x1_81 0
d1_2_3 0
x1_80 0
d1_2_4 0
x1_87 0
d1_2_5 0
x1_86 0
d1_2_6 0
x1_85 0
d1_2_7 0
x1_84 0
d1_2_8 0
y1_48 0
y1_49 0
y1_50 0
y1_51 0
y1_52 1
y1_53 0
y1_54 1
y1_55 0
x1_91 0
d1_3_1 0
x1_90 0
d1_3_2 0
x1_89 0
d1_3_3 0
x1_88 0
d1_3_4 0
x1_95 0
d1_3_5 1
x1_94 0
d1_3_6 0
x1_93 0
d1_3_7 1
x1_92 0
d1_3_8 0
x2_0 0
x2_1 0
x2_2 0
x2_3 0
x2_4 0
x2_5 0
x2_6 0
x2_7 0
x2_8 0
x2_9 0
x2_10 0
x2_11 0
x2_12 0
x2_13 0
x2_14 0
x2_15 0
x2_16 0
x2_17 0
x2_18 0
x2_19 0
x2_20 0
x2_21 0
x2_22 0
x2_23 0
x2_24 0
x2_25 0
x2_26 0
x2_27 0
x2_28 0
x2_29 0
x2_30 0
x2_31 0
x2_32 0
x2_33 0
x2_34 0
x2_35 0
x2_36 0
x2_37 0
x2_38 0
x2_39 0
x2_40 0
x2_41 0
x2_42 0
x2_43 0
x2_44 0
x2_45 0
x2_46 0
x2_47 1
x2_48 0
x2_49 0
x2_50 0
x2_51 0
x2_52 0
x2_53 0
x2_54 0
x2_55 0
x2_56 0
x2_57 0
x2_58 0
x2_59 0
x2_60 0
x2_61 0
x2_62 0
x2_63 0
y2_0 0
y2_1 0
y2_2 0
y2_3 0
y2_4 0
y2_5 0
y2_6 0
y2_7 0
x2_67 0
d2_0_1 0
x2_66 0
d2_0_2 0
x2_65 0
d2_0_3 0
x2_64 0
d2_0_4 0
x2_71 0
d2_0_5 0
x2_70 0
d2_0_6 0
x2_69 0
d2_0_7 0
x2_68 0
d2_0_8 0
y2_16 0
y2_17 0
y2_18 0
y2_19 0
y2_20 0
y2_21 0
y2_22 0
y2_23 0
x2_75 0
d2_1_1 0
x2_74 0
d2_1_2 0
x2_73 0
d2_1_3 0
x2_72 0
d2_1_4 0
x2_79 0
d2_1_5 0
x2_78 0
d2_1_6 0
x2_77 0
d2_1_7 0
x2_76 0
d2_1_8 0
y2_32 0
y2_33 0
y2_34 0
y2_35 0
y2_36 0
y2_37 0
y2_38 0
y2_39 0
x2_83 0
d2_2_1 0
x2_82 0
d2_2_2 0
x2_81 0
d2_2_3 0
x2_80 0
d2_2_4 0
x2_87 1
d2_2_5 1
x2_86 0
d2_2_6 0
x2_85 0
d2_2_7 0
x2_84 0
d2_2_8 0
y2_48 0
y2_49 0
y2_50 0
y2_51 0
y2_52 0
y2_53 0
y2_54 0
y2_55 0
x2_91 0
d2_3_1 0
x2_90 0
d2_3_2 0
x2_89 0
d2_3_3 0
x2_88 0
d2_3_4 0
x2_95 0
d2_3_5 0
x2_94 0
d2_3_6 0
x2_93 0
d2_3_7 0
x2_92 0
d2_3_8 0
x3_0 0
x3_1 0
x3_2 0
x3_3 0
x3_4 0
x3_5 0
x3_6 0
x3_7 0
x3_8 0
x3_9 0
x3_10 0
x3_11 0
x3_12 0
x3_13 0
x3_14 0
x3_15 0
x3_16 0
x3_17 0
x3_18 0
x3_19 0
x3_20 0
x3_21 0
x3_22 0
x3_23 0
x3_24 0
x3_25 0
x3_26 0
x3_27 0
x3_28 0
x3_29 0
x3_30 0
x3_31 0
x3_32 0
x3_33 0
x3_34 0
x3_35 0
x3_36 0
x3_37 0
x3_38 0
x3_39 0
x3_40 0
x3_41 0
x3_42 0
x3_43 0
x3_44 0
x3_45 0
x3_46 0
x3_47 0
x3_48 0
x3_49 0
x3_50 0
x3_51 0
x3_52 0
x3_53 0
x3_54 0
x3_55 1
x3_56 0
x3_57 0
x3_58 0
x3_59 0
x3_60 0
x3_61 0
x3_62 0
x3_63 0
y3_0 0
y3_1 0
y3_2 0
y3_3 0
y3_4 0
y3_5 0
y3_6 0
y3_7 0
x3_67 0
d3_0_1 0
x3_66 0
d3_0_2 0
x3_65 0
d3_0_3 0
x3_64 0
d3_0_4 0
x3_71 0
d3_0_5 0
x3_70 0
d3_0_6 0
x3_69 0
d3_0_7 0
x3_68 0
d3_0_8 0
y3_16 0
y3_17 0
y3_18 0
y3_19 0
y3_20 0
y3_21 0
y3_22 0
y3_23 0
x3_75 0
d3_1_1 0
x3_74 0
d3_1_2 0
x3_73 0
d3_1_3 0
x3_72 0
d3_1_4 0
x3_79 0
d3_1_5 0
x3_78 0
d3_1_6 0
x3_77 0
d3_1_7 0
x3_76 0
d3_1_8 0
y3_32 0
y3_33 0
y3_34 0
y3_35 0
y3_36 0
y3_37 0
y3_38 0
y3_39 0
x3_83 0
d3_2_1 0
x3_82 0
d3_2_2 0
x3_81 0
d3_2_3 0
x3_80 0
d3_2_4 0
x3_87 0
d3_2_5 0
x3_86 0
d3_2_6 0
x3_85 0
d3_2_7 0
x3_84 0
d3_2_8 0
y3_48 0
y3_49 0
y3_50 0
y3_51 0
y3_52 0
y3_53 0
y3_54 1
y3_55 0
x3_91 0
d3_3_1 0
x3_90 0
d3_3_2 0
x3_89 0
d3_3_3 0
x3_88 0
d3_3_4 0
x3_95 1
d3_3_5 1
x3_94 0
d3_3_6 0
x3_93 0
d3_3_7 0
x3_92 0
d3_3_8 0
x4_0 0
x4_1 0
x4_2 0
x4_3 0
x4_4 0
x4_5 0
x4_6 0
x4_7 0
x4_8 0
x4_9 0
x4_10 0
x4_11 0
x4_12 0
x4_13 0
x4_14 0
x4_15 0
x4_16 0
x4_17 0
x4_18 0
x4_19 0
x4_20 0
x4_21 0
x4_22 0
x4_23 0
x4_24 0
x4_25 0
x4_26 0
x4_27 0
x4_28 0
x4_29 0
x4_30 0
x4_31 0
x4_32 0
x4_33 0
x4_34 0
x4_35 0
x4_36 0
x4_37 0
x4_38 0
x4_39 0
x4_40 0
x4_41 0
x4_42 0
x4_43 0
x4_44 0
x4_45 0
x4_46 0
x4_47 1
x4_48 0
x4_49 0
x4_50 0
x4_51 0
x4_52 0
x4_53 0
x4_54 0
x4_55 1
x4_56 0
x4_57 0
x4_58 0
x4_59 0
x4_60 0
x4_61 0
x4_62 0
x4_63 0
y4_0 0
y4_1 0
y4_2 0
y4_3 0
y4_4 0
y4_5 0
y4_6 0
y4_7 0
x4_67 0
d4_0_1 0
x4_66 0
d4_0_2 0
x4_65 0
d4_0_3 0
x4_64 0
d4_0_4 0
x4_71 0
d4_0_5 0
x4_70 0
d4_0_6 0
x4_69 0
d4_0_7 0
x4_68 0
d4_0_8 0
y4_16 0
y4_17 0
y4_18 0
y4_19 0
y4_20 0
y4_21 0
y4_22 0
y4_23 0
x4_75 0
d4_1_1 0
x4_74 0
d4_1_2 0
x4_73 0
d4_1_3 0
x4_72 0
d4_1_4 0
x4_79 0
d4_1_5 0
x4_78 0
d4_1_6 0
x4_77 0
d4_1_7 0
x4_76 0
d4_1_8 0
y4_32 0
y4_33 0
y4_34 0
y4_35 0
y4_36 0
y4_37 0
y4_38 0
y4_39 0
x4_83 0
d4_2_1 0
x4_82 0
d4_2_2 0
x4_81 0
d4_2_3 0
x4_80 0
d4_2_4 0
x4_87 1
d4_2_5 1
x4_86 0
d4_2_6 0
x4_85 0
d4_2_7 0
x4_84 0
d4_2_8 0
y4_48 0
y4_49 0
y4_50 0
y4_51 0
y4_52 0
y4_53 0
y4_54 1
y4_55 0
x4_91 0
d4_3_1 0
x4_90 0
d4_3_2 0
x4_89 0
d4_3_3 0
x4_88 0
d4_3_4 0
x4_95 1
d4_3_5 1
x4_94 0
d4_3_6 0
x4_93 0
d4_3_7 0
x4_92 0
d4_3_8 0
x5_0 0
x5_1 0
x5_2 0
x5_3 0
x5_4 0
x5_5 0
x5_6 0
x5_7 1
x5_8 0
x5_9 0
x5_10 0
x5_11 0
x5_12 0
x5_13 0
x5_14 0
x5_15 0
x5_16 0
x5_17 0
x5_18 0
x5_19 0
x5_20 0
x5_21 0
x5_22 0
x5_23 0
x5_24 0
x5_25 0
x5_26 0
x5_27 0
x5_28 0
x5_29 0
x5_30 0
x5_31 0
x5_32 0
x5_33 0
x5_34 0
x5_35 0
x5_36 0
x5_37 0
x5_38 0
x5_39 0
x5_40 0
x5_41 0
x5_42 0
x5_43 0
x5_44 0
x5_45 0
x5_46 0
x5_47 1
x5_48 0
x5_49 0
x5_50 0
x5_51 0
x5_52 0
x5_53 0
x5_54 0
x5_55 1
x5_56 0
x5_57 0
x5_58 0
x5_59 0
x5_60 0
x5_61 0
x5_62 0
x5_63 0
