ActiveSbox/r5.AS.lp.log

Gurobi 10.0.3 (win64) logging started Sat Nov  9 17:13:48 2024

Set parameter LogFile to value "r5.AS.lp.log"
Gurobi Optimizer version 10.0.3 build v10.0.3rc0 (win64)

CPU model: 12th Gen Intel(R) Core(TM) i5-1240P, instruction set [SSE2|AVX|AVX2]
Thread count: 12 physical cores, 16 logical processors, using up to 2 threads

Optimize a model with 1721 rows, 904 columns and 9904 nonzeros
Model fingerprint: 0xdce380e9
Variable types: 0 continuous, 904 integer (904 binary)
Coefficient statistics:
  Matrix range     [1e+00, 7e+00]
  Objective range  [1e+00, 1e+00]
  Bounds range     [1e+00, 1e+00]
  RHS range        [1e+00, 9e+00]
Presolve removed 392 rows and 384 columns
Presolve time: 0.02s
Presolved: 1329 rows, 520 columns, 8936 nonzeros
Variable types: 0 continuous, 520 integer (520 binary)
Found heuristic solution: objective 11.0000000

Root relaxation: objective 0.000000e+00, 2 iterations, 0.00 seconds (0.00 work units)

    Nodes    |    Current Node    |     Objective Bounds      |     Work
 Expl Unexpl |  Obj  Depth IntInf | Incumbent    BestBd   Gap | It/Node Time

     0     0    0.00000    0    1   11.00000    0.00000   100%     -    0s
H    0     0                       7.0000000    0.00000   100%     -    0s
     0     0    0.00000    0    1    7.00000    0.00000   100%     -    0s
     0     0    0.00000    0    1    7.00000    0.00000   100%     -    0s
     0     0    0.00000    0    1    7.00000    0.00000   100%     -    0s
     0     0    0.00000    0    1    7.00000    0.00000   100%     -    0s
     0     0    0.00000    0    1    7.00000    0.00000   100%     -    0s
     0     0    0.00000    0    1    7.00000    0.00000   100%     -    0s
     0     0    0.00000    0    1    7.00000    0.00000   100%     -    0s
     0     2    1.00000    0    1    7.00000    1.00000  85.7%     -    0s
H   35    38                       4.0000000    1.00000  75.0%  10.5    0s

Cutting planes:
  Gomory: 2
  Cover: 41
  Inf proof: 3

Explored 620 nodes (7123 simplex iterations) in 0.30 seconds (0.34 work units)
Thread count was 2 (of 16 available processors)

Solution count 3: 4 7 11 

Optimal solution found (tolerance 1.00e-04)
Best objective 4.000000000000e+00, best bound 4.000000000000e+00, gap 0.0000%
